Version identifier: 22.1.1.0 | 2022-11-28 | 9160aff4d
CPXPARAM_ClockType                               1
CPXPARAM_Read_DataCheck                          1
CPXPARAM_Threads                                 1
CPXPARAM_TimeLimit                               7200
CPXPARAM_MIP_Tolerances_AbsMIPGap                0
CPXPARAM_MIP_Tolerances_MIPGap                   0
CPXPARAM_MIP_Tolerances_Integrality              0
Tried aggregator 5 times.
MIP Presolve eliminated 6296 rows and 2614 columns.
MIP Presolve modified 1872 coefficients.
Aggregator did 679 substitutions.
Reduced MIP has 1814 rows, 1127 columns, and 5124 nonzeros.
Reduced MIP has 1127 binaries, 0 generals, 0 SOSs, and 0 indicators.
Presolve time = 0.02 sec. (14.34 ticks)
Found incumbent of value -721.000000 after 0.03 sec. (20.13 ticks)
Probing time = 0.00 sec. (2.83 ticks)
Tried aggregator 1 time.
Detecting symmetries...
MIP Presolve eliminated 7 rows and 4 columns.
Reduced MIP has 1807 rows, 1123 columns, and 5106 nonzeros.
Reduced MIP has 1123 binaries, 0 generals, 0 SOSs, and 0 indicators.
Presolve time = 0.00 sec. (5.63 ticks)
Probing time = 0.00 sec. (2.79 ticks)
Clique table members: 3760.
MIP emphasis: balance optimality and feasibility.
MIP search method: dynamic search.
Parallel mode: none, using 1 thread.
Root relaxation solution time = 0.01 sec. (7.53 ticks)

        Nodes                                         Cuts/
   Node  Left     Objective  IInf  Best Integer    Best Bound    ItCnt     Gap

*     0+    0                         -717.0000      188.0000           126.22%
*     0     0      integral     0      188.0000      188.0000      482    0.00%
Elapsed time = 0.06 sec. (42.59 ticks, tree = 0.00 MB, solutions = 3)

Root node processing (before b&c):
  Real time             =    0.06 sec. (42.79 ticks)
Sequential b&c:
  Real time             =    0.00 sec. (0.00 ticks)
                          ------------
Total (root+branch&cut) =    0.06 sec. (42.79 ticks)
Solution is feasible.

---------------------
@@@ MIP_optimal
>>> Benchmark mc2024_track1_184.cnf k 2 OPT 188 TimeCost 0.761040449142456 TimeSolve 0.06814837455749512 TimeRead 0.0055084228515625 TimeTrans 0.6873836517333984
